p cnf 430 1488
-191 -71 0
-191 -163 0
-191 21 0
-191 -86 0
-191 115 0
191 71 163 -21 86 -115 0
-192 48 0
-192 44 0
-192 -22 0
-192 18 0
-192 3 0
192 -48 -44 22 -18 -3 0
-193 -52 0
-193 -29 0
-193 112 0
-193 87 0
-193 -33 0
193 52 29 -112 -87 33 0
-194 -125 0
-194 155 0
-194 100 0
-194 147 0
-194 50 0
194 125 -155 -100 -147 -50 0
-195 141 0
-195 -71 0
-195 -1 0
-195 -182 0
-195 -137 0
195 -141 71 1 182 137 0
191 192 193 194 195 0
-196 -92 0
-196 45 0
-196 77 0
-196 -142 0
-196 -38 0
196 92 -45 -77 142 38 0
-197 81 0
-197 -181 0
-197 -87 0
-197 123 0
-197 183 0
197 -81 181 87 -123 -183 0
-198 10 0
-198 -72 0
-198 -132 0
-198 -57 0
-198 -74 0
198 -10 72 132 57 74 0
-199 139 0
-199 -154 0
-199 -9 0
-199 184 0
-199 42 0
199 -139 154 9 -184 -42 0
-200 -50 0
-200 -126 0
-200 -58 0
-200 -122 0
-200 -74 0
200 50 126 58 122 74 0
196 197 198 199 200 0
-201 -9 0
-201 125 0
-201 -147 0
-201 167 0
-201 -132 0
201 9 -125 147 -167 132 0
-202 181 0
-202 185 0
-202 -178 0
-202 155 0
-202 160 0
202 -181 -185 178 -155 -160 0
-203 165 0
-203 -49 0
-203 91 0
-203 -6 0
-203 139 0
203 -165 49 -91 6 -139 0
-204 -131 0
-204 43 0
-204 67 0
-204 -34 0
-204 -153 0
204 131 -43 -67 34 153 0
-205 -100 0
-205 -157 0
-205 125 0
-205 -47 0
-205 -20 0
205 100 157 -125 47 20 0
201 202 203 204 205 0
-206 -184 0
-206 -105 0
-206 -181 0
-206 155 0
-206 -185 0
206 184 105 181 -155 185 0
-207 25 0
-207 77 0
-207 -73 0
-207 -155 0
-207 -164 0
207 -25 -77 73 155 164 0
-208 -37 0
-208 -33 0
-208 109 0
-208 -5 0
-208 -27 0
208 37 33 -109 5 27 0
-209 -33 0
-209 -172 0
-209 117 0
-209 -73 0
-209 169 0
209 33 172 -117 73 -169 0
-210 -38 0
-210 181 0
-210 23 0
-210 175 0
-210 131 0
210 38 -181 -23 -175 -131 0
206 207 208 209 210 0
-211 27 0
-211 -17 0
-211 -35 0
-211 169 0
-211 110 0
211 -27 17 35 -169 -110 0
-212 -31 0
-212 -39 0
-212 -67 0
-212 12 0
-212 -126 0
212 31 39 67 -12 126 0
-213 -152 0
-213 176 0
-213 92 0
-213 -166 0
-213 -114 0
213 152 -176 -92 166 114 0
-214 -109 0
-214 46 0
-214 7 0
-214 56 0
-214 -66 0
214 109 -46 -7 -56 66 0
-215 42 0
-215 111 0
-215 -54 0
-215 -92 0
-215 -120 0
215 -42 -111 54 92 120 0
211 212 213 214 215 0
-216 -100 0
-216 -104 0
-216 -93 0
-216 40 0
-216 -127 0
216 100 104 93 -40 127 0
-217 163 0
-217 -56 0
-217 101 0
-217 -173 0
-217 47 0
217 -163 56 -101 173 -47 0
-218 -135 0
-218 151 0
-218 -75 0
-218 59 0
-218 41 0
218 135 -151 75 -59 -41 0
-219 30 0
-219 117 0
-219 108 0
-219 -36 0
-219 33 0
219 -30 -117 -108 36 -33 0
-220 -138 0
-220 151 0
-220 119 0
-220 14 0
-220 -107 0
220 138 -151 -119 -14 107 0
216 217 218 219 220 0
-221 -28 0
-221 43 0
-221 102 0
-221 141 0
-221 -111 0
221 28 -43 -102 -141 111 0
-222 -127 0
-222 76 0
-222 77 0
-222 -46 0
-222 166 0
222 127 -76 -77 46 -166 0
-223 -140 0
-223 -21 0
-223 -116 0
-223 -14 0
-223 -34 0
223 140 21 116 14 34 0
-224 49 0
-224 -156 0
-224 -136 0
-224 17 0
-224 22 0
224 -49 156 136 -17 -22 0
-225 -7 0
-225 -125 0
-225 -130 0
-225 -150 0
-225 5 0
225 7 125 130 150 -5 0
221 222 223 224 225 0
-226 -22 0
-226 -145 0
-226 -7 0
-226 -105 0
-226 98 0
226 22 145 7 105 -98 0
-227 111 0
-227 17 0
-227 121 0
-227 -27 0
-227 110 0
227 -111 -17 -121 27 -110 0
-228 -180 0
-228 -178 0
-228 -3 0
-228 38 0
-228 -49 0
228 180 178 3 -38 49 0
-229 -88 0
-229 -36 0
-229 126 0
-229 -89 0
-229 -43 0
229 88 36 -126 89 43 0
-230 106 0
-230 -151 0
-230 -30 0
-230 -101 0
-230 -73 0
230 -106 151 30 101 73 0
226 227 228 229 230 0
-231 149 0
-231 -125 0
-231 33 0
-231 74 0
-231 30 0
231 -149 125 -33 -74 -30 0
-232 -48 0
-232 -127 0
-232 -159 0
-232 81 0
-232 59 0
232 48 127 159 -81 -59 0
-233 -59 0
-233 174 0
-233 87 0
-233 173 0
-233 105 0
233 59 -174 -87 -173 -105 0
-234 42 0
-234 152 0
-234 44 0
-234 -71 0
-234 -101 0
234 -42 -152 -44 71 101 0
-235 89 0
-235 -56 0
-235 45 0
-235 8 0
-235 186 0
235 -89 56 -45 -8 -186 0
231 232 233 234 235 0
-236 -16 0
-236 122 0
-236 -153 0
-236 165 0
-236 -68 0
236 16 -122 153 -165 68 0
-237 -176 0
-237 1 0
-237 35 0
-237 137 0
-237 -62 0
237 176 -1 -35 -137 62 0
-238 78 0
-238 -77 0
-238 -189 0
-238 25 0
-238 117 0
238 -78 77 189 -25 -117 0
-239 14 0
-239 -155 0
-239 42 0
-239 170 0
-239 -25 0
239 -14 155 -42 -170 25 0
-240 117 0
-240 -154 0
-240 -51 0
-240 -70 0
-240 38 0
240 -117 154 51 70 -38 0
236 237 238 239 240 0
-241 113 0
-241 15 0
-241 -118 0
-241 180 0
-241 76 0
241 -113 -15 118 -180 -76 0
-242 123 0
-242 125 0
-242 34 0
-242 139 0
-242 154 0
242 -123 -125 -34 -139 -154 0
-243 -176 0
-243 -110 0
-243 -30 0
-243 -114 0
-243 125 0
243 176 110 30 114 -125 0
-244 130 0
-244 168 0
-244 145 0
-244 -151 0
-244 -111 0
244 -130 -168 -145 151 111 0
-245 -155 0
-245 -153 0
-245 150 0
-245 168 0
-245 -116 0
245 155 153 -150 -168 116 0
241 242 243 244 245 0
-246 -56 0
-246 -160 0
-246 -49 0
-246 -176 0
-246 -53 0
246 56 160 49 176 53 0
-247 115 0
-247 109 0
-247 -6 0
-247 133 0
-247 150 0
247 -115 -109 6 -133 -150 0
-248 -9 0
-248 63 0
-248 -3 0
-248 10 0
-248 -21 0
248 9 -63 3 -10 21 0
-249 -184 0
-249 -110 0
-249 -188 0
-249 -27 0
-249 180 0
249 184 110 188 27 -180 0
-250 61 0
-250 73 0
-250 63 0
-250 -161 0
-250 -119 0
250 -61 -73 -63 161 119 0
246 247 248 249 250 0
-251 139 0
-251 70 0
-251 21 0
-251 179 0
-251 -136 0
251 -139 -70 -21 -179 136 0
-252 169 0
-252 25 0
-252 -94 0
-252 -99 0
-252 -41 0
252 -169 -25 94 99 41 0
-253 -185 0
-253 -116 0
-253 15 0
-253 156 0
-253 -161 0
253 185 116 -15 -156 161 0
-254 -126 0
-254 81 0
-254 -33 0
-254 110 0
-254 186 0
254 126 -81 33 -110 -186 0
-255 -111 0
-255 156 0
-255 46 0
-255 106 0
-255 155 0
255 111 -156 -46 -106 -155 0
251 252 253 254 255 0
-256 -140 0
-256 97 0
-256 -9 0
-256 -162 0
-256 -63 0
256 140 -97 9 162 63 0
-257 -52 0
-257 12 0
-257 57 0
-257 55 0
-257 -87 0
257 52 -12 -57 -55 87 0
-258 -83 0
-258 -64 0
-258 65 0
-258 -6 0
-258 -109 0
258 83 64 -65 6 109 0
-259 111 0
-259 131 0
-259 72 0
-259 -15 0
-259 138 0
259 -111 -131 -72 15 -138 0
-260 154 0
-260 98 0
-260 -23 0
-260 132 0
-260 -130 0
260 -154 -98 23 -132 130 0
256 257 258 259 260 0
-261 -168 0
-261 25 0
-261 21 0
-261 122 0
-261 -28 0
261 168 -25 -21 -122 28 0
-262 -159 0
-262 -19 0
-262 -26 0
-262 152 0
-262 140 0
262 159 19 26 -152 -140 0
-263 -56 0
-263 15 0
-263 21 0
-263 -27 0
-263 32 0
263 56 -15 -21 27 -32 0
-264 -65 0
-264 92 0
-264 126 0
-264 186 0
-264 -101 0
264 65 -92 -126 -186 101 0
-265 -48 0
-265 5 0
-265 148 0
-265 142 0
-265 162 0
265 48 -5 -148 -142 -162 0
261 262 263 264 265 0
-266 -150 0
-266 7 0
-266 86 0
-266 -155 0
-266 -102 0
266 150 -7 -86 155 102 0
-267 -38 0
-267 136 0
-267 -169 0
-267 -64 0
-267 75 0
267 38 -136 169 64 -75 0
-268 131 0
-268 -44 0
-268 42 0
-268 -72 0
-268 -18 0
268 -131 44 -42 72 18 0
-269 -8 0
-269 -41 0
-269 51 0
-269 -124 0
-269 -83 0
269 8 41 -51 124 83 0
-270 143 0
-270 -43 0
-270 -162 0
-270 13 0
-270 -102 0
270 -143 43 162 -13 102 0
266 267 268 269 270 0
-271 -47 0
-271 -92 0
-271 132 0
-271 143 0
-271 57 0
271 47 92 -132 -143 -57 0
-272 162 0
-272 66 0
-272 -141 0
-272 -94 0
-272 26 0
272 -162 -66 141 94 -26 0
-273 65 0
-273 162 0
-273 -38 0
-273 101 0
-273 155 0
273 -65 -162 38 -101 -155 0
-274 -76 0
-274 -27 0
-274 -169 0
-274 164 0
-274 1 0
274 76 27 169 -164 -1 0
-275 104 0
-275 -25 0
-275 -92 0
-275 136 0
-275 -37 0
275 -104 25 92 -136 37 0
271 272 273 274 275 0
-276 41 0
-276 54 0
-276 129 0
-276 10 0
-276 -140 0
276 -41 -54 -129 -10 140 0
-277 189 0
-277 -19 0
-277 -71 0
-277 24 0
-277 120 0
277 -189 19 71 -24 -120 0
-278 -132 0
-278 -148 0
-278 -172 0
-278 117 0
-278 -25 0
278 132 148 172 -117 25 0
-279 124 0
-279 160 0
-279 -188 0
-279 121 0
-279 155 0
279 -124 -160 188 -121 -155 0
-280 78 0
-280 -131 0
-280 93 0
-280 130 0
-280 -133 0
280 -78 131 -93 -130 133 0
276 277 278 279 280 0
-281 85 0
-281 -110 0
-281 166 0
-281 -101 0
-281 31 0
281 -85 110 -166 101 -31 0
-282 -170 0
-282 -125 0
-282 135 0
-282 -116 0
-282 35 0
282 170 125 -135 116 -35 0
-283 -94 0
-283 81 0
-283 31 0
-283 92 0
-283 -144 0
283 94 -81 -31 -92 144 0
-284 -88 0
-284 -101 0
-284 153 0
-284 97 0
-284 -87 0
284 88 101 -153 -97 87 0
-285 -184 0
-285 41 0
-285 -59 0
-285 -169 0
-285 -132 0
285 184 -41 59 169 132 0
281 282 283 284 285 0
-286 -157 0
-286 -74 0
-286 -169 0
-286 121 0
-286 51 0
286 157 74 169 -121 -51 0
-287 -129 0
-287 132 0
-287 48 0
-287 174 0
-287 57 0
287 129 -132 -48 -174 -57 0
-288 -55 0
-288 -121 0
-288 -19 0
-288 -10 0
-288 125 0
288 55 121 19 10 -125 0
-289 -190 0
-289 57 0
-289 -146 0
-289 60 0
-289 7 0
289 190 -57 146 -60 -7 0
-290 46 0
-290 -33 0
-290 28 0
-290 96 0
-290 19 0
290 -46 33 -28 -96 -19 0
286 287 288 289 290 0
-291 163 0
-291 153 0
-291 118 0
-291 -12 0
-291 -159 0
291 -163 -153 -118 12 159 0
-292 163 0
-292 -140 0
-292 45 0
-292 -189 0
-292 -186 0
292 -163 140 -45 189 186 0
-293 -88 0
-293 43 0
-293 118 0
-293 -35 0
-293 -126 0
293 88 -43 -118 35 126 0
-294 140 0
-294 -170 0
-294 -156 0
-294 187 0
-294 102 0
294 -140 170 156 -187 -102 0
-295 -128 0
-295 92 0
-295 49 0
-295 105 0
-295 -185 0
295 128 -92 -49 -105 185 0
291 292 293 294 295 0
-296 137 0
-296 -38 0
-296 -104 0
-296 173 0
-296 -51 0
296 -137 38 104 -173 51 0
-297 -102 0
-297 112 0
-297 93 0
-297 -113 0
-297 -10 0
297 102 -112 -93 113 10 0
-298 44 0
-298 -130 0
-298 56 0
-298 -22 0
-298 -54 0
298 -44 130 -56 22 54 0
-299 -9 0
-299 -5 0
-299 155 0
-299 -145 0
-299 44 0
299 9 5 -155 145 -44 0
-300 -103 0
-300 77 0
-300 135 0
-300 -13 0
-300 128 0
300 103 -77 -135 13 -128 0
296 297 298 299 300 0
-301 101 0
-301 -84 0
-301 -90 0
-301 24 0
-301 -33 0
301 -101 84 90 -24 33 0
-302 122 0
-302 -43 0
-302 -150 0
-302 77 0
-302 -143 0
302 -122 43 150 -77 143 0
-303 188 0
-303 80 0
-303 -106 0
-303 -9 0
-303 -132 0
303 -188 -80 106 9 132 0
-304 -110 0
-304 -36 0
-304 44 0
-304 -120 0
-304 -53 0
304 110 36 -44 120 53 0
-305 170 0
-305 -96 0
-305 -53 0
-305 -22 0
-305 90 0
305 -170 96 53 22 -90 0
301 302 303 304 305 0
-306 -126 0
-306 78 0
-306 -68 0
-306 66 0
-306 177 0
306 126 -78 68 -66 -177 0
-307 50 0
-307 -140 0
-307 185 0
-307 -136 0
-307 167 0
307 -50 140 -185 136 -167 0
-308 132 0
-308 -177 0
-308 149 0
-308 101 0
-308 -152 0
308 -132 177 -149 -101 152 0
-309 -13 0
-309 76 0
-309 135 0
-309 -56 0
-309 -176 0
309 13 -76 -135 56 176 0
-310 170 0
-310 82 0
-310 181 0
-310 121 0
-310 -177 0
310 -170 -82 -181 -121 177 0
306 307 308 309 310 0
-311 79 0
-311 -149 0
-311 -60 0
-311 -38 0
-311 -12 0
311 -79 149 60 38 12 0
-312 160 0
-312 -76 0
-312 48 0
-312 -118 0
-312 113 0
312 -160 76 -48 118 -113 0
-313 102 0
-313 4 0
-313 169 0
-313 -22 0
-313 59 0
313 -102 -4 -169 22 -59 0
-314 55 0
-314 75 0
-314 155 0
-314 128 0
-314 -125 0
314 -55 -75 -155 -128 125 0
-315 -58 0
-315 187 0
-315 131 0
-315 -82 0
-315 -37 0
315 58 -187 -131 82 37 0
311 312 313 314 315 0
-316 -79 0
-316 -155 0
-316 -166 0
-316 94 0
-316 -103 0
316 79 155 166 -94 103 0
-317 -120 0
-317 -39 0
-317 84 0
-317 -44 0
-317 -97 0
317 120 39 -84 44 97 0
-318 -13 0
-318 127 0
-318 7 0
-318 2 0
-318 -111 0
318 13 -127 -7 -2 111 0
-319 73 0
-319 -184 0
-319 120 0
-319 67 0
-319 -69 0
319 -73 184 -120 -67 69 0
-320 -52 0
-320 176 0
-320 60 0
-320 -53 0
-320 56 0
320 52 -176 -60 53 -56 0
316 317 318 319 320 0
-321 -72 0
-321 80 0
-321 -81 0
-321 73 0
-321 -163 0
321 72 -80 81 -73 163 0
-322 -61 0
-322 93 0
-322 -86 0
-322 -41 0
-322 105 0
322 61 -93 86 41 -105 0
-323 117 0
-323 126 0
-323 87 0
-323 81 0
-323 -156 0
323 -117 -126 -87 -81 156 0
-324 86 0
-324 15 0
-324 39 0
-324 182 0
-324 155 0
324 -86 -15 -39 -182 -155 0
-325 -89 0
-325 130 0
-325 -61 0
-325 -66 0
-325 -112 0
325 89 -130 61 66 112 0
321 322 323 324 325 0
-326 -93 0
-326 137 0
-326 -105 0
-326 -124 0
-326 -24 0
326 93 -137 105 124 24 0
-327 123 0
-327 58 0
-327 -168 0
-327 3 0
-327 75 0
327 -123 -58 168 -3 -75 0
-328 -25 0
-328 -128 0
-328 132 0
-328 -82 0
-328 118 0
328 25 128 -132 82 -118 0
-329 -87 0
-329 49 0
-329 -150 0
-329 111 0
-329 155 0
329 87 -49 150 -111 -155 0
-330 -180 0
-330 28 0
-330 -33 0
-330 -148 0
-330 -101 0
330 180 -28 33 148 101 0
326 327 328 329 330 0
-331 -186 0
-331 -154 0
-331 67 0
-331 -37 0
-331 -100 0
331 186 154 -67 37 100 0
-332 35 0
-332 -44 0
-332 -73 0
-332 91 0
-332 32 0
332 -35 44 73 -91 -32 0
-333 107 0
-333 54 0
-333 174 0
-333 104 0
-333 -45 0
333 -107 -54 -174 -104 45 0
-334 -107 0
-334 104 0
-334 52 0
-334 -154 0
-334 113 0
334 107 -104 -52 154 -113 0
-335 -68 0
-335 -4 0
-335 -26 0
-335 -167 0
-335 86 0
335 68 4 26 167 -86 0
331 332 333 334 335 0
-336 -161 0
-336 -114 0
-336 -51 0
-336 126 0
-336 -73 0
336 161 114 51 -126 73 0
-337 -47 0
-337 39 0
-337 13 0
-337 22 0
-337 96 0
337 47 -39 -13 -22 -96 0
-338 16 0
-338 -26 0
-338 -58 0
-338 -2 0
-338 -86 0
338 -16 26 58 2 86 0
-339 119 0
-339 -157 0
-339 15 0
-339 143 0
-339 13 0
339 -119 157 -15 -143 -13 0
-340 -39 0
-340 -8 0
-340 -168 0
-340 -108 0
-340 -153 0
340 39 8 168 108 153 0
336 337 338 339 340 0
-341 96 0
-341 95 0
-341 -29 0
-341 18 0
-341 13 0
341 -96 -95 29 -18 -13 0
-342 -86 0
-342 112 0
-342 -110 0
-342 -117 0
-342 49 0
342 86 -112 110 117 -49 0
-343 -140 0
-343 -39 0
-343 60 0
-343 76 0
-343 153 0
343 140 39 -60 -76 -153 0
-344 125 0
-344 -109 0
-344 -98 0
-344 -76 0
-344 -132 0
344 -125 109 98 76 132 0
-345 106 0
-345 1 0
-345 -137 0
-345 -72 0
-345 -52 0
345 -106 -1 137 72 52 0
341 342 343 344 345 0
-346 -36 0
-346 -167 0
-346 -2 0
-346 -43 0
-346 -177 0
346 36 167 2 43 177 0
-347 172 0
-347 -167 0
-347 -76 0
-347 -154 0
-347 -156 0
347 -172 167 76 154 156 0
-348 -155 0
-348 -119 0
-348 91 0
-348 96 0
-348 -159 0
348 155 119 -91 -96 159 0
-349 93 0
-349 175 0
-349 90 0
-349 134 0
-349 27 0
349 -93 -175 -90 -134 -27 0
-350 -89 0
-350 189 0
-350 -179 0
-350 -73 0
-350 92 0
350 89 -189 179 73 -92 0
346 347 348 349 350 0
-351 45 0
-351 112 0
-351 -29 0
-351 31 0
-351 -160 0
351 -45 -112 29 -31 160 0
-352 -90 0
-352 47 0
-352 168 0
-352 -20 0
-352 -141 0
352 90 -47 -168 20 141 0
-353 -180 0
-353 166 0
-353 43 0
-353 -125 0
-353 -104 0
353 180 -166 -43 125 104 0
-354 -182 0
-354 -178 0
-354 -156 0
-354 189 0
-354 33 0
354 182 178 156 -189 -33 0
-355 124 0
-355 -152 0
-355 169 0
-355 -38 0
-355 13 0
355 -124 152 -169 38 -13 0
351 352 353 354 355 0
-356 -129 0
-356 -56 0
-356 -125 0
-356 82 0
-356 172 0
356 129 56 125 -82 -172 0
-357 -110 0
-357 183 0
-357 -26 0
-357 -187 0
-357 -102 0
357 110 -183 26 187 102 0
-358 115 0
-358 -113 0
-358 -112 0
-358 -118 0
-358 -60 0
358 -115 113 112 118 60 0
-359 -106 0
-359 105 0
-359 177 0
-359 -7 0
-359 -90 0
359 106 -105 -177 7 90 0
-360 -55 0
-360 -42 0
-360 -152 0
-360 -145 0
-360 -141 0
360 55 42 152 145 141 0
356 357 358 359 360 0
-361 76 0
-361 -47 0
-361 37 0
-361 140 0
-361 41 0
361 -76 47 -37 -140 -41 0
-362 87 0
-362 7 0
-362 13 0
-362 40 0
-362 83 0
362 -87 -7 -13 -40 -83 0
-363 151 0
-363 12 0
-363 -107 0
-363 -31 0
-363 77 0
363 -151 -12 107 31 -77 0
-364 -168 0
-364 64 0
-364 118 0
-364 150 0
-364 114 0
364 168 -64 -118 -150 -114 0
-365 -111 0
-365 110 0
-365 -27 0
-365 181 0
-365 8 0
365 111 -110 27 -181 -8 0
361 362 363 364 365 0
-366 132 0
-366 -29 0
-366 60 0
-366 -51 0
-366 142 0
366 -132 29 -60 51 -142 0
-367 -147 0
-367 46 0
-367 -19 0
-367 -123 0
-367 156 0
367 147 -46 19 123 -156 0
-368 -138 0
-368 23 0
-368 -3 0
-368 162 0
-368 -140 0
368 138 -23 3 -162 140 0
-369 52 0
-369 190 0
-369 58 0
-369 -84 0
-369 59 0
369 -52 -190 -58 84 -59 0
-370 -159 0
-370 38 0
-370 -83 0
-370 69 0
-370 -7 0
370 159 -38 83 -69 7 0
366 367 368 369 370 0
-371 -7 0
-371 48 0
-371 -25 0
-371 100 0
-371 -95 0
371 7 -48 25 -100 95 0
-372 -7 0
-372 -27 0
-372 52 0
-372 173 0
-372 32 0
372 7 27 -52 -173 -32 0
-373 -162 0
-373 16 0
-373 101 0
-373 189 0
-373 -132 0
373 162 -16 -101 -189 132 0
-374 96 0
-374 -143 0
-374 -43 0
-374 99 0
-374 37 0
374 -96 143 43 -99 -37 0
-375 -115 0
-375 185 0
-375 74 0
-375 78 0
-375 106 0
375 115 -185 -74 -78 -106 0
371 372 373 374 375 0
-376 -34 0
-376 -121 0
-376 -182 0
-376 60 0
-376 -157 0
376 34 121 182 -60 157 0
-377 171 0
-377 -106 0
-377 181 0
-377 153 0
-377 -55 0
377 -171 106 -181 -153 55 0
-378 60 0
-378 -96 0
-378 -55 0
-378 -104 0
-378 172 0
378 -60 96 55 104 -172 0
-379 -52 0
-379 -56 0
-379 35 0
-379 185 0
-379 -61 0
379 52 56 -35 -185 61 0
-380 22 0
-380 -37 0
-380 155 0
-380 -108 0
-380 -120 0
380 -22 37 -155 108 120 0
376 377 378 379 380 0
-381 -39 0
-381 -93 0
-381 -88 0
-381 -161 0
-381 63 0
381 39 93 88 161 -63 0
-382 131 0
-382 -30 0
-382 -127 0
-382 108 0
-382 113 0
382 -131 30 127 -108 -113 0
-383 -186 0
-383 -107 0
-383 -176 0
-383 5 0
-383 61 0
383 186 107 176 -5 -61 0
-384 -135 0
-384 35 0
-384 181 0
-384 58 0
-384 -130 0
384 135 -35 -181 -58 130 0
-385 -65 0
-385 -93 0
-385 165 0
-385 -159 0
-385 175 0
385 65 93 -165 159 -175 0
381 382 383 384 385 0
-386 -21 0
-386 116 0
-386 -60 0
-386 -144 0
-386 -98 0
386 21 -116 60 144 98 0
-387 113 0
-387 131 0
-387 133 0
-387 12 0
-387 137 0
387 -113 -131 -133 -12 -137 0
-388 177 0
-388 -180 0
-388 87 0
-388 -145 0
-388 77 0
388 -177 180 -87 145 -77 0
-389 97 0
-389 -22 0
-389 -79 0
-389 -53 0
-389 -6 0
389 -97 22 79 53 6 0
-390 -93 0
-390 151 0
-390 70 0
-390 146 0
-390 94 0
390 93 -151 -70 -146 -94 0
386 387 388 389 390 0
-391 36 0
-391 -62 0
-391 -88 0
-391 8 0
-391 130 0
391 -36 62 88 -8 -130 0
-392 122 0
-392 -182 0
-392 95 0
-392 98 0
-392 -42 0
392 -122 182 -95 -98 42 0
-393 -179 0
-393 88 0
-393 -18 0
-393 37 0
-393 -129 0
393 179 -88 18 -37 129 0
-394 174 0
-394 -31 0
-394 93 0
-394 94 0
-394 -67 0
394 -174 31 -93 -94 67 0
-395 -77 0
-395 -151 0
-395 -134 0
-395 -17 0
-395 -42 0
395 77 151 134 17 42 0
391 392 393 394 395 0
-396 106 0
-396 -189 0
-396 -63 0
-396 171 0
-396 104 0
396 -106 189 63 -171 -104 0
-397 125 0
-397 98 0
-397 14 0
-397 -55 0
-397 6 0
397 -125 -98 -14 55 -6 0
-398 142 0
-398 -14 0
-398 108 0
-398 13 0
-398 123 0
398 -142 14 -108 -13 -123 0
-399 152 0
-399 -12 0
-399 -139 0
-399 96 0
-399 116 0
399 -152 12 139 -96 -116 0
-400 112 0
-400 8 0
-400 -6 0
-400 -119 0
-400 -45 0
400 -112 -8 6 119 45 0
396 397 398 399 400 0
-401 -149 0
-401 86 0
-401 184 0
-401 6 0
-401 124 0
401 149 -86 -184 -6 -124 0
-402 174 0
-402 -143 0
-402 106 0
-402 -1 0
-402 -87 0
402 -174 143 -106 1 87 0
-403 95 0
-403 -83 0
-403 73 0
-403 37 0
-403 -17 0
403 -95 83 -73 -37 17 0
-404 -55 0
-404 -134 0
-404 140 0
-404 174 0
-404 107 0
404 55 134 -140 -174 -107 0
-405 -148 0
-405 84 0
-405 -69 0
-405 66 0
-405 187 0
405 148 -84 69 -66 -187 0
401 402 403 404 405 0
-406 -101 0
-406 61 0
-406 -138 0
-406 17 0
-406 -100 0
406 101 -61 138 -17 100 0
-407 -171 0
-407 -189 0
-407 -61 0
-407 -51 0
-407 25 0
407 171 189 61 51 -25 0
-408 -114 0
-408 101 0
-408 -6 0
-408 -106 0
-408 -163 0
408 114 -101 6 106 163 0
-409 -48 0
-409 -187 0
-409 75 0
-409 105 0
-409 -179 0
409 48 187 -75 -105 179 0
-410 -84 0
-410 -108 0
-410 -78 0
-410 73 0
-410 -40 0
410 84 108 78 -73 40 0
406 407 408 409 410 0
-411 137 0
-411 66 0
-411 -159 0
-411 136 0
-411 -53 0
411 -137 -66 159 -136 53 0
-412 10 0
-412 -25 0
-412 7 0
-412 183 0
-412 -54 0
412 -10 25 -7 -183 54 0
-413 137 0
-413 -98 0
-413 -144 0
-413 73 0
-413 106 0
413 -137 98 144 -73 -106 0
-414 90 0
-414 180 0
-414 -1 0
-414 -63 0
-414 189 0
414 -90 -180 1 63 -189 0
-415 121 0
-415 39 0
-415 120 0
-415 -21 0
-415 -17 0
415 -121 -39 -120 21 17 0
411 412 413 414 415 0
-416 141 0
-416 156 0
-416 129 0
-416 169 0
-416 46 0
416 -141 -156 -129 -169 -46 0
-417 153 0
-417 165 0
-417 -148 0
-417 84 0
-417 -2 0
417 -153 -165 148 -84 2 0
-418 168 0
-418 -113 0
-418 173 0
-418 -162 0
-418 -31 0
418 -168 113 -173 162 31 0
-419 54 0
-419 33 0
-419 112 0
-419 90 0
-419 138 0
419 -54 -33 -112 -90 -138 0
-420 -52 0
-420 -185 0
-420 -89 0
-420 -152 0
-420 56 0
420 52 185 89 152 -56 0
416 417 418 419 420 0
-421 -154 0
-421 15 0
-421 -138 0
-421 -23 0
-421 17 0
421 154 -15 138 23 -17 0
-422 185 0
-422 -2 0
-422 -106 0
-422 112 0
-422 -176 0
422 -185 2 106 -112 176 0
-423 164 0
-423 -20 0
-423 -172 0
-423 -4 0
-423 -184 0
423 -164 20 172 4 184 0
-424 141 0
-424 22 0
-424 15 0
-424 156 0
-424 188 0
424 -141 -22 -15 -156 -188 0
-425 177 0
-425 73 0
-425 -21 0
-425 110 0
-425 -9 0
425 -177 -73 21 -110 9 0
421 422 423 424 425 0
-426 25 0
-426 188 0
-426 67 0
-426 105 0
-426 -118 0
426 -25 -188 -67 -105 118 0
-427 3 0
-427 168 0
-427 14 0
-427 69 0
-427 -149 0
427 -3 -168 -14 -69 149 0
-428 -116 0
-428 54 0
-428 28 0
-428 87 0
-428 172 0
428 116 -54 -28 -87 -172 0
-429 82 0
-429 78 0
-429 -112 0
-429 125 0
-429 130 0
429 -82 -78 112 -125 -130 0
-430 -125 0
-430 -143 0
-430 156 0
-430 -32 0
-430 -161 0
430 125 143 -156 32 161 0
426 427 428 429 430 0
